Version identifier: 22.1.0.0 | 2022-03-09 | 1a383f8ce
CPXPARAM_Threads                                 1
CPXPARAM_MIP_Strategy_VariableSelect             3
CPXPARAM_TimeLimit                               593.26495585700002
1 of 1 MIP starts provided solutions.
MIP start 'm1' defined initial solution with objective 281.0000.
Tried aggregator 1 time.
MIP Presolve eliminated 11 rows and 0 columns.
MIP Presolve modified 3 coefficients.
Reduced MIP has 2113 rows, 7500 columns, and 94770 nonzeros.
Reduced MIP has 7500 binaries, 0 generals, 0 SOSs, and 0 indicators.
Presolve time = 0.06 sec. (41.57 ticks)
Probing time = 0.01 sec. (4.32 ticks)
Tried aggregator 1 time.
Detecting symmetries...
Reduced MIP has 2113 rows, 7500 columns, and 94770 nonzeros.
Reduced MIP has 7500 binaries, 0 generals, 0 SOSs, and 0 indicators.
Presolve time = 0.07 sec. (49.45 ticks)
Probing time = 0.01 sec. (4.32 ticks)
Clique table members: 898.
MIP emphasis: balance optimality and feasibility.
MIP search method: dynamic search.
Parallel mode: none, using 1 thread.
Root relaxation solution time = 1.69 sec. (1723.47 ticks)

        Nodes                                         Cuts/
   Node  Left     Objective  IInf  Best Integer    Best Bound    ItCnt     Gap

*     0+    0                          281.0000     7500.0000              --- 
      0     0      300.0000  1122      281.0000      300.0000     5433    6.76%
      0     0      300.0000   333      281.0000    Cliques: 6     8991    6.76%
      0     0      300.0000   264      281.0000    Cliques: 1    10605    6.76%
      0     0      300.0000   244      281.0000       Cuts: 4    11008    6.76%
*     0+    0                          294.0000      300.0000             2.04%
      0     0        cutoff            294.0000      300.0000    11008    2.04%
      0     0      300.0000   347      294.0000      Cuts: 44    14583    2.04%
      0     0      300.0000   244      294.0000      Cuts: 10    19997    2.04%
Detecting symmetries...
      0     0      300.0000   689      294.0000      Cuts: 25    24445    2.04%
Detecting symmetries...
      0     2      300.0000   142      294.0000      300.0000    24445    2.04%
Elapsed time = 138.05 sec. (162098.17 ticks, tree = 0.01 MB, solutions = 2)
      1     3      300.0000   278      294.0000      300.0000    31718    2.04%
      2     4      300.0000   144      294.0000      300.0000    35063    2.04%
      3     5      300.0000   144      294.0000      300.0000    37094    2.04%
      4     6      300.0000   220      294.0000      300.0000    40649    2.04%
      5     7      300.0000   149      294.0000      300.0000    44184    2.04%
      6     8      300.0000   271      294.0000      300.0000    62509    2.04%
      7     9      300.0000   154      294.0000      300.0000    67735    2.04%
      8    10      300.0000   164      294.0000      300.0000    68689    2.04%
      9    11      300.0000  1139      294.0000      300.0000    76522    2.04%
     10    12      300.0000   265      294.0000      300.0000    77640    2.04%
Elapsed time = 158.99 sec. (184821.35 ticks, tree = 0.06 MB, solutions = 2)
     12    14      300.0000   240      294.0000      300.0000    88695    2.04%
     15    17      300.0000   143      294.0000      300.0000    92840    2.04%
     16    18      300.0000   732      294.0000      300.0000   108648    2.04%
     18    20      300.0000   619      294.0000      300.0000   114586    2.04%
     20    22      300.0000   491      294.0000      300.0000   118738    2.04%
     21    23      300.0000   506      294.0000      300.0000   124655    2.04%
     23    25      300.0000   190      294.0000      300.0000   127231    2.04%
     24    26      300.0000   196      294.0000      300.0000   129364    2.04%
     25    27      300.0000   312      294.0000      300.0000   140966    2.04%
     26    28      300.0000   783      294.0000      300.0000   147922    2.04%
Elapsed time = 187.96 sec. (216166.03 ticks, tree = 0.15 MB, solutions = 2)
     27    29      300.0000   217      294.0000      300.0000   150072    2.04%
     29    31      300.0000   258      294.0000      300.0000   154149    2.04%
     30    32      300.0000   194      294.0000      300.0000   158993    2.04%
     32    34      300.0000   198      294.0000      300.0000   159781    2.04%
     33    35      300.0000   165      294.0000      300.0000   163407    2.04%
     34    36      300.0000   165      294.0000      300.0000   165230    2.04%
     35    37      300.0000   198      294.0000      300.0000   167089    2.04%
     36    38      300.0000   688      294.0000      300.0000   173042    2.04%
     38    40      300.0000   183      294.0000      300.0000   173775    2.04%
     39    41      300.0000   191      294.0000      300.0000   175302    2.04%
Elapsed time = 203.97 sec. (233035.97 ticks, tree = 0.29 MB, solutions = 2)
     40    42      300.0000   193      294.0000      300.0000   179029    2.04%
     41    43      300.0000   778      294.0000      300.0000   183984    2.04%
     42    44      300.0000   215      294.0000      300.0000   194848    2.04%
     43    45      300.0000   270      294.0000      300.0000   199605    2.04%
     44    46      300.0000   386      294.0000      300.0000   202187    2.04%
     46    48      300.0000   313      294.0000      300.0000   202407    2.04%
     47    49      300.0000   370      294.0000      300.0000   205251    2.04%
     50    52      300.0000   294      294.0000      300.0000   205378    2.04%
     52    54      300.0000   500      294.0000      300.0000   209357    2.04%
     53    55      300.0000   666      294.0000      300.0000   212976    2.04%
Elapsed time = 223.94 sec. (254322.65 ticks, tree = 0.54 MB, solutions = 2)
     56    58      300.0000   272      294.0000      300.0000   213146    2.04%
     57    59      300.0000   285      294.0000      300.0000   215550    2.04%
     58    60      300.0000   212      294.0000      300.0000   218003    2.04%
     59    61      300.0000   305      294.0000      300.0000   221880    2.04%
     60    62      300.0000   362      294.0000      300.0000   225923    2.04%
     62    64      300.0000   236      294.0000      300.0000   226553    2.04%
     64    66      300.0000   248      294.0000      300.0000   232332    2.04%
     66    68      300.0000   486      294.0000      300.0000   236805    2.04%
     68    70      300.0000   291      294.0000      300.0000   240013    2.04%
     70    72      300.0000   349      294.0000      300.0000   243828    2.04%
Elapsed time = 244.59 sec. (275496.24 ticks, tree = 0.89 MB, solutions = 2)
     72    74      300.0000   267      294.0000      300.0000   245264    2.04%
     74    76      300.0000   246      294.0000      300.0000   249424    2.04%
     75    77      300.0000   429      294.0000      300.0000   254139    2.04%
     77    79      300.0000   305      294.0000      300.0000   259584    2.04%
     79    81      300.0000   300      294.0000      300.0000   264514    2.04%
     80    82      300.0000   242      294.0000      300.0000   266652    2.04%
     81    83      300.0000   396      294.0000      300.0000   271768    2.04%
     82    84      300.0000   374      294.0000      300.0000   273779    2.04%
     84    86      300.0000   639      294.0000      300.0000   280298    2.04%
     86    88      300.0000   326      294.0000      300.0000   283221    2.04%
Elapsed time = 265.52 sec. (296865.34 ticks, tree = 1.14 MB, solutions = 2)
     87    89      300.0000   306      294.0000      300.0000   284937    2.04%
     88    90      300.0000   457      294.0000      300.0000   289326    2.04%
     91    93      300.0000   294      294.0000      300.0000   291584    2.04%
     92    94      300.0000   272      294.0000      300.0000   296082    2.04%
     93    95      300.0000   346      294.0000      300.0000   299529    2.04%
     95    97      300.0000   375      294.0000      300.0000   303660    2.04%
     97    99      300.0000   272      294.0000      300.0000   304856    2.04%
     98   100      300.0000   304      294.0000      300.0000   310789    2.04%
     99   101      300.0000   294      294.0000      300.0000   312204    2.04%
    101   103      300.0000   288      294.0000      300.0000   312778    2.04%
Elapsed time = 282.28 sec. (314092.50 ticks, tree = 1.39 MB, solutions = 2)
    102   104      300.0000   287      294.0000      300.0000   316024    2.04%
    103   105      300.0000   438      294.0000      300.0000   320165    2.04%
    105   107      300.0000   269      294.0000      300.0000   323199    2.04%
    106   108      300.0000   415      294.0000      300.0000   327719    2.04%
    108   110      300.0000   392      294.0000      300.0000   333514    2.04%
    109   111      300.0000   254      294.0000      300.0000   335650    2.04%
    110   112      300.0000   243      294.0000      300.0000   344753    2.04%
    111   113      300.0000   505      294.0000      300.0000   350463    2.04%
    112   114      300.0000   246      294.0000      300.0000   353261    2.04%
    113   115      300.0000   511      294.0000      300.0000   358954    2.04%
Elapsed time = 304.34 sec. (336693.63 ticks, tree = 1.59 MB, solutions = 2)
    114   116      300.0000   236      294.0000      300.0000   360394    2.04%
    115   117      300.0000   274      294.0000      300.0000   364488    2.04%
    116   118      300.0000   253      294.0000      300.0000   366412    2.04%
    118   120      300.0000   385      294.0000      300.0000   371725    2.04%
    119   121      300.0000   227      294.0000      300.0000   373587    2.04%
    120   122      300.0000   235      294.0000      300.0000   377363    2.04%
    121   123      300.0000   289      294.0000      300.0000   380988    2.04%
    122   124      300.0000   329      294.0000      300.0000   385189    2.04%
    123   125      300.0000   291      294.0000      300.0000   388644    2.04%
    124   126      300.0000   278      294.0000      300.0000   392781    2.04%
Elapsed time = 320.83 sec. (353525.96 ticks, tree = 1.77 MB, solutions = 2)
    125   127      300.0000   529      294.0000      300.0000   396934    2.04%
    127   129      300.0000   416      294.0000      300.0000   402822    2.04%
    128   130      300.0000   265      294.0000      300.0000   405644    2.04%
    130   132      300.0000   244      294.0000      300.0000   406527    2.04%
    131   133      300.0000   258      294.0000      300.0000   408143    2.04%
    132   134      300.0000   231      294.0000      300.0000   413453    2.04%
    133   135      300.0000   232      294.0000      300.0000   416533    2.04%
    134   136      300.0000   358      294.0000      300.0000   419408    2.04%
    135   137      300.0000   353      294.0000      300.0000   423858    2.04%
    137   139      300.0000   373      294.0000      300.0000   433338    2.04%
Elapsed time = 341.36 sec. (374375.27 ticks, tree = 1.98 MB, solutions = 2)
    140   142      300.0000   273      294.0000      300.0000   440380    2.04%
    143   145      300.0000   310      294.0000      300.0000   450322    2.04%
    146   148      300.0000   536      294.0000      300.0000   457475    2.04%
    148   150      300.0000   270      294.0000      300.0000   475141    2.04%
    151   153      300.0000   415      294.0000      300.0000   495807    2.04%
    154   156      300.0000   321      294.0000      300.0000   506196    2.04%
    158   160      300.0000   342      294.0000      300.0000   515880    2.04%
    160   162      300.0000   444      294.0000      300.0000   525171    2.04%
    163   165      300.0000   548      294.0000      300.0000   536975    2.04%
    167   169      300.0000   476      294.0000      300.0000   546123    2.04%
Elapsed time = 419.67 sec. (452746.38 ticks, tree = 2.47 MB, solutions = 2)
    173   175      300.0000   407      294.0000      300.0000   553837    2.04%
    176   178      300.0000   334      294.0000      300.0000   561944    2.04%
    179   181      300.0000   344      294.0000      300.0000   571999    2.04%
    183   185      300.0000   333      294.0000      300.0000   584059    2.04%
    186   188      300.0000   318      294.0000      300.0000   593151    2.04%
    189   191      300.0000   473      294.0000      300.0000   606753    2.04%
    193   195      300.0000   389      294.0000      300.0000   618368    2.04%
    196   198      300.0000   586      294.0000      300.0000   632450    2.04%
    199   201      300.0000   408      294.0000      300.0000   641402    2.04%
    201   203      300.0000   472      294.0000      300.0000   652795    2.04%
Elapsed time = 468.71 sec. (501868.17 ticks, tree = 2.97 MB, solutions = 2)
    204   206      300.0000   456      294.0000      300.0000   663038    2.04%
    208   210      300.0000   304      294.0000      300.0000   673942    2.04%
    210   212      300.0000   326      294.0000      300.0000   689318    2.04%
    213   215      300.0000   259      294.0000      300.0000   702576    2.04%
    217   219      300.0000   206      294.0000      300.0000   714467    2.04%
    219   221      300.0000   267      294.0000      300.0000   728405    2.04%
    220   222      300.0000   329      294.0000      300.0000   734939    2.04%
    222   222      300.0000   306      294.0000      300.0000   746909    2.04%
    225   224      299.9231   385      294.0000      300.0000   767924    2.04%
    227   226      300.0000   178      294.0000      300.0000   779615    2.04%
Elapsed time = 524.13 sec. (556825.82 ticks, tree = 3.34 MB, solutions = 2)
    228   227      300.0000   347      294.0000      300.0000   792392    2.04%
    230   229      300.0000   177      294.0000      300.0000   822898    2.04%
    232   230      299.7692   388      294.0000      300.0000   836664    2.04%
    234   232      300.0000   211      294.0000      300.0000   849379    2.04%
    238   235      299.6154   350      294.0000      300.0000   871851    2.04%
    240   236      299.6154   311      294.0000      300.0000   888216    2.04%
    242   237      300.0000   222      294.0000      300.0000   902124    2.04%
    246   239      300.0000   214      294.0000      300.0000   914482    2.04%
    248   241      300.0000   293      294.0000      300.0000   927127    2.04%
    250   243      300.0000   325      294.0000      300.0000   942431    2.04%
Elapsed time = 575.81 sec. (607665.29 ticks, tree = 3.60 MB, solutions = 2)
    253   246      300.0000   230      294.0000      300.0000   955358    2.04%
    256   249      300.0000   380      294.0000      300.0000   973009    2.04%
    257   249      299.6154   310      294.0000      300.0000   986282    2.04%

Clique cuts applied:  24
Zero-half cuts applied:  18

Root node processing (before b&c):
  Real time             =  138.00 sec. (162044.86 ticks)
Sequential b&c:
  Real time             =  455.27 sec. (462903.91 ticks)
                          ------------
Total (root+branch&cut) =  593.27 sec. (624948.77 ticks)
Primal:	294
Dual:	300
Status:	Feasible
Time:	593.31
Sequence:
	12
	2
	23
	15
	10
	21
	24
	1
	10
	22
	20
	15
	9
	21
	24
	6
	12
	17
	13
	8
	14
	17
	11
	19
	18
	19
	12
	8
	13
	4
	0
	1
	20
	22
	10
	1
	16
	5
	10
	15
	16
	21
	9
	15
	23
	2
	16
	1
	20
	22
	20
	5
	24
	21
	16
	5
	3
	0
	3
	14
	8
	12
	19
	0
	3
	18
	3
	0
	19
	12
	8
	12
	19
	0
	3
	12
	8
	21
	16
	5
	20
	2
	23
	2
	23
	6
	18
	4
	13
	15
	20
	21
	24
	1
	9
	2
	20
	15
	9
	21
	24
	6
	9
	2
	23
	15
	10
	21
	24
	1
	9
	2
	20
	1
	18
	4
	6
	16
	5
	10
	15
	11
	7
	18
	19
	15
	10
	5
	24
	6
	18
	21
	23
	15
	10
	21
	16
	1
	4
	0
	6
	3
	18
	17
	13
	19
	18
	17
	1
	20
	2
	9
	1
	24
	21
	10
	15
	11
	4
	0
	19
	11
	17
	14
	8
	13
	4
	18
	19
	11
	2
	9
	1
	16
	5
	10
	15
	3
	0
	4
	13
	8
	14
	4
	15
	19
	14
	17
	13
	3
	18
	7
	13
	8
	12
	17
	13
	19
	0
	4
	11
	8
	0
	21
	23
	15
	0
	7
	11
	8
	18
	21
	20
	15
	9
	22
	16
	6
	12
	17
	11
	19
	0
	17
	11
	3
	0
	7
	11
	8
	14
	17
	13
	3
	0
	4
	13
	8
	14
	17
	11
	19
	18
	7
	11
	8
	14
	17
	13
	3
	0
	4
	1
	16
	5
	10
	15
	23
	2
	9
	6
	24
	21
	18
	1
	20
	22
	10
	1
	24
	2
	9
	6
	24
	5
	10
	15
	20
	22
	9
	6
	24
	21
	9
	15
	20
	21
	17
	11
	3
	0
	7
	15
	23
